p cnf 242 445
34 0
-36 -67 0
-35 36 -67 0
35 36 67 0
-37 -68 0
37 67 -68 0
37 -67 68 0
-38 -69 0
38 68 -69 0
38 -68 69 0
-39 69 -70 0
-39 -69 70 0
39 70 0
-40 -71 0
40 70 -71 0
40 -70 71 0
-41 -72 0
41 71 -72 0
41 -71 72 0
-42 -73 0
42 72 -73 0
42 -72 73 0
-43 -74 0
43 73 -74 0
43 -73 74 0
-44 -75 0
44 74 -75 0
44 -74 75 0
-45 -76 0
45 75 -76 0
45 -75 76 0
-46 -77 0
46 76 -77 0
46 -76 77 0
-47 -78 0
47 77 -78 0
47 -77 78 0
-48 -79 0
48 78 -79 0
48 -78 79 0
-49 -80 0
49 79 -80 0
49 -79 80 0
-50 -81 0
50 80 -81 0
50 -80 81 0
-51 -82 0
51 81 -82 0
51 -81 82 0
-52 -83 0
52 82 -83 0
52 -82 83 0
-53 -84 0
53 83 -84 0
53 -83 84 0
-54 -85 0
54 84 -85 0
54 -84 85 0
-55 -86 0
55 85 -86 0
55 -85 86 0
-56 -87 0
56 86 -87 0
56 -86 87 0
-57 -88 0
57 87 -88 0
57 -87 88 0
-58 -89 0
58 88 -89 0
58 -88 89 0
-59 -90 0
59 89 -90 0
59 -89 90 0
-60 -91 0
60 90 -91 0
60 -90 91 0
-61 -92 0
61 91 -92 0
61 -91 92 0
-62 -93 0
62 92 -93 0
62 -92 93 0
-63 -94 0
63 93 -94 0
63 -93 94 0
-64 -95 0
64 94 -95 0
64 -94 95 0
-65 -96 0
65 95 -96 0
65 -95 96 0
-66 -97 0
66 96 -97 0
66 -96 97 0
66 -97 -98 0
-66 97 -98 0
66 97 98 0
-66 -97 98 0
-35 -99 0
-36 -99 0
-37 -99 0
-38 -99 0
39 -99 0
-40 -99 0
-41 -99 0
-42 -99 0
-43 -99 0
-44 -99 0
-45 -99 0
-46 -99 0
-47 -99 0
-48 -99 0
-49 -99 0
-50 -99 0
-51 -99 0
-52 -99 0
-53 -99 0
-54 -99 0
-55 -99 0
-56 -99 0
-57 -99 0
-58 -99 0
-59 -99 0
-60 -99 0
-61 -99 0
-62 -99 0
-63 -99 0
-64 -99 0
-65 -99 0
-66 -99 0
35 36 37 38 -39 40 41 42 43 44 45 46 47 48 49 50 51 52 53 54 55 56 57 58 59 60 61 62 63 64 65 66 99 0
-98 100 0
-99 100 0
98 99 -100 0
-33 100 -101 0
33 -100 -101 0
-33 -100 101 0
33 100 101 0
-101 0
48 -102 0
47 -102 0
-47 -48 102 0
-47 -48 -103 0
47 48 -103 0
47 -48 103 0
-47 48 103 0
49 -104 0
102 -104 0
-49 -102 104 0
-49 -102 -105 0
49 102 -105 0
-49 102 105 0
49 -102 105 0
50 -106 0
104 -106 0
-50 -104 106 0
-50 -104 -107 0
50 104 -107 0
-50 104 107 0
50 -104 107 0
51 -108 0
106 -108 0
-51 -106 108 0
-51 -106 -109 0
51 106 -109 0
-51 106 109 0
51 -106 109 0
52 -110 0
108 -110 0
-52 -108 110 0
-52 -108 -111 0
52 108 -111 0
-52 108 111 0
52 -108 111 0
53 -112 0
110 -112 0
-53 -110 112 0
-53 -110 -113 0
53 110 -113 0
-53 110 113 0
53 -110 113 0
54 -114 0
112 -114 0
-54 -112 114 0
-54 -112 -115 0
54 112 -115 0
-54 112 115 0
54 -112 115 0
55 -116 0
114 -116 0
-55 -114 116 0
-55 -114 -117 0
55 114 -117 0
-55 114 117 0
55 -114 117 0
56 -118 0
116 -118 0
-56 -116 118 0
-56 -116 -119 0
56 116 -119 0
-56 116 119 0
56 -116 119 0
57 -120 0
118 -120 0
-57 -118 120 0
-57 -118 -121 0
57 118 -121 0
-57 118 121 0
57 -118 121 0
58 -122 0
120 -122 0
-58 -120 122 0
-58 -120 -123 0
58 120 -123 0
-58 120 123 0
58 -120 123 0
59 -124 0
122 -124 0
-59 -122 124 0
-59 -122 -125 0
59 122 -125 0
-59 122 125 0
59 -122 125 0
60 -126 0
124 -126 0
-60 -124 126 0
-60 -124 -127 0
60 124 -127 0
-60 124 127 0
60 -124 127 0
61 -128 0
126 -128 0
-61 -126 128 0
-61 -126 -129 0
61 126 -129 0
-61 126 129 0
61 -126 129 0
62 -130 0
128 -130 0
-62 -128 130 0
-62 -128 -131 0
62 128 -131 0
-62 128 131 0
62 -128 131 0
63 -132 0
130 -132 0
-63 -130 132 0
-63 -130 -133 0
63 130 -133 0
-63 130 133 0
63 -130 133 0
64 -134 0
132 -134 0
-64 -132 134 0
-64 -132 -135 0
64 132 -135 0
-64 132 135 0
64 -132 135 0
65 -136 0
134 -136 0
-65 -134 136 0
-65 -134 -137 0
65 134 -137 0
-65 134 137 0
65 -134 137 0
66 -138 0
136 -138 0
-66 -136 138 0
-66 -136 -139 0
66 136 -139 0
-66 136 139 0
66 -136 139 0
33 -1 0
35 -1 0
-33 -35 1 0
33 -2 0
36 -2 0
-33 -36 2 0
33 -3 0
37 -3 0
-33 -37 3 0
33 -4 0
38 -4 0
-33 -38 4 0
33 -5 0
39 -5 0
-33 -39 5 0
33 -6 0
40 -6 0
-33 -40 6 0
33 -7 0
41 -7 0
-33 -41 7 0
33 -8 0
42 -8 0
-33 -42 8 0
33 -9 0
43 -9 0
-33 -43 9 0
33 -10 0
44 -10 0
-33 -44 10 0
33 -11 0
45 -11 0
-33 -45 11 0
33 -12 0
46 -12 0
-33 -46 12 0
33 13 0
47 13 0
-33 -47 -13 0
33 -14 0
103 -14 0
-33 -103 14 0
33 -15 0
105 -15 0
-33 -105 15 0
33 -16 0
107 -16 0
-33 -107 16 0
33 -17 0
109 -17 0
-33 -109 17 0
33 -18 0
111 -18 0
-33 -111 18 0
33 -19 0
113 -19 0
-33 -113 19 0
33 -20 0
115 -20 0
-33 -115 20 0
33 -21 0
117 -21 0
-33 -117 21 0
33 -22 0
119 -22 0
-33 -119 22 0
33 -23 0
121 -23 0
-33 -121 23 0
33 -24 0
123 -24 0
-33 -123 24 0
33 -25 0
125 -25 0
-33 -125 25 0
33 -26 0
127 -26 0
-33 -127 26 0
33 -27 0
129 -27 0
-33 -129 27 0
33 -28 0
131 -28 0
-33 -131 28 0
33 -29 0
133 -29 0
-33 -133 29 0
33 -30 0
135 -30 0
-33 -135 30 0
33 -31 0
137 -31 0
-33 -137 31 0
33 -32 0
139 -32 0
-33 -139 32 0
35 -204 0
-35 204 0
36 -205 0
-36 205 0
37 -206 0
-37 206 0
38 -207 0
-38 207 0
39 -208 0
-39 208 0
40 -209 0
-40 209 0
41 -210 0
-41 210 0
42 -211 0
-42 211 0
43 -212 0
-43 212 0
44 -213 0
-44 213 0
45 -214 0
-45 214 0
46 -215 0
-46 215 0
47 -216 0
-47 216 0
48 -217 0
-48 217 0
49 -218 0
-49 218 0
50 -219 0
-50 219 0
51 -220 0
-51 220 0
52 -221 0
-52 221 0
53 -222 0
-53 222 0
54 -223 0
-54 223 0
55 -224 0
-55 224 0
56 -225 0
-56 225 0
57 -226 0
-57 226 0
58 -227 0
-58 227 0
59 -228 0
-59 228 0
60 -229 0
-60 229 0
61 -230 0
-61 230 0
62 -231 0
-62 231 0
63 -232 0
-63 232 0
64 -233 0
-64 233 0
65 -234 0
-65 234 0
66 -235 0
-66 235 0
-236 -238 -240 0
236 238 -240 0
-236 238 240 0
236 -238 240 0
-237 -239 -241 0
237 239 -241 0
-237 239 241 0
237 -239 241 0
-240 -242 0
-241 -242 0
240 241 242 0
-34 242 0
34 -242 0
c __CPROVER_malloc_is_new_array#1 FALSE
c goto_symex::\guard#1 33
c sanity_check::1::O!0@1#1 140 141 142 143 144 145 146 147 148 149 150 151 152 153 154 155 156 157 158 159 160 161 162 163 164 165 166 167 168 169 170 171
c sanity_check::1::O!0@1#2 35 36 37 38 39 40 41 42 43 44 45 46 -47 103 105 107 109 111 113 115 117 119 121 123 125 127 129 131 133 135 137 139
c sanity_check::S!0@1#1 35 36 37 38 39 40 41 42 43 44 45 46 47 48 49 50 51 52 53 54 55 56 57 58 59 60 61 62 63 64 65 66
c sanity_check::1::O!0@1#3 140 141 142 143 144 145 146 147 148 149 150 151 152 153 154 155 156 157 158 159 160 161 162 163 164 165 166 167 168 169 170 171
c __CPROVER_malloc_object#1 FALSE FALSE FALSE FALSE FALSE FALSE FALSE FALSE FALSE FALSE FALSE FALSE FALSE FALSE FALSE FALSE FALSE FALSE FALSE FALSE FALSE FALSE FALSE FALSE FALSE FALSE FALSE FALSE FALSE FALSE FALSE FALSE
c _start::S!0#1 35 36 37 38 39 40 41 42 43 44 45 46 47 48 49 50 51 52 53 54 55 56 57 58 59 60 61 62 63 64 65 66
c __CPROVER_deallocated#1 FALSE FALSE FALSE FALSE FALSE FALSE FALSE FALSE FALSE FALSE FALSE FALSE FALSE FALSE FALSE FALSE FALSE FALSE FALSE FALSE FALSE FALSE FALSE FALSE FALSE FALSE FALSE FALSE FALSE FALSE FALSE FALSE
c sanity_check::1::O!0@1#4 FALSE FALSE FALSE FALSE FALSE FALSE FALSE FALSE FALSE FALSE FALSE FALSE TRUE FALSE FALSE FALSE FALSE FALSE FALSE FALSE FALSE FALSE FALSE FALSE FALSE FALSE FALSE FALSE FALSE FALSE FALSE FALSE
c __CPROVER_malloc_size#1 FALSE FALSE FALSE FALSE FALSE FALSE FALSE FALSE FALSE FALSE FALSE FALSE FALSE FALSE FALSE FALSE FALSE FALSE FALSE FALSE FALSE FALSE FALSE FALSE FALSE FALSE FALSE FALSE FALSE FALSE FALSE FALSE
c sanity_check::1::__return_value!0@1#1 172 173 174 175 176 177 178 179 180 181 182 183 184 185 186 187 188 189 190 191 192 193 194 195 196 197 198 199 200 201 202 203
c __CPROVER_dead_object#1 FALSE FALSE FALSE FALSE FALSE FALSE FALSE FALSE FALSE FALSE FALSE FALSE FALSE FALSE FALSE FALSE FALSE FALSE FALSE FALSE FALSE FALSE FALSE FALSE FALSE FALSE FALSE FALSE FALSE FALSE FALSE FALSE
c sanity_check::1::O!0@1#5 1 2 3 4 5 6 7 8 9 10 11 12 13 14 15 16 17 18 19 20 21 22 23 24 25 26 27 28 29 30 31 32
c __CPROVER_memory_leak#1 FALSE FALSE FALSE FALSE FALSE FALSE FALSE FALSE FALSE FALSE FALSE FALSE FALSE FALSE FALSE FALSE FALSE FALSE FALSE FALSE FALSE FALSE FALSE FALSE FALSE FALSE FALSE FALSE FALSE FALSE FALSE FALSE
c sanity_check::1::__return_value!0@1#2 1 2 3 4 5 6 7 8 9 10 11 12 13 14 15 16 17 18 19 20 21 22 23 24 25 26 27 28 29 30 31 32
c __CPROVER_next_thread_id#1 FALSE FALSE FALSE FALSE FALSE FALSE FALSE FALSE FALSE FALSE FALSE FALSE FALSE FALSE FALSE FALSE FALSE FALSE FALSE FALSE FALSE FALSE FALSE FALSE FALSE FALSE FALSE FALSE FALSE FALSE FALSE FALSE
c __CPROVER_pipe_count#1 FALSE FALSE FALSE FALSE FALSE FALSE FALSE FALSE FALSE FALSE FALSE FALSE FALSE FALSE FALSE FALSE FALSE FALSE FALSE FALSE FALSE FALSE FALSE FALSE FALSE FALSE FALSE FALSE FALSE FALSE FALSE FALSE
c __CPROVER_rounding_mode!0#1 FALSE FALSE FALSE FALSE FALSE FALSE FALSE FALSE FALSE FALSE FALSE FALSE FALSE FALSE FALSE FALSE FALSE FALSE FALSE FALSE FALSE FALSE FALSE FALSE FALSE FALSE FALSE FALSE FALSE FALSE FALSE FALSE
c symex::io::0 204 205 206 207 208 209 210 211 212 213 214 215 216 217 218 219 220 221 222 223 224 225 226 227 228 229 230 231 232 233 234 235
c __CPROVER_thread_id!0#1 FALSE FALSE FALSE FALSE FALSE FALSE FALSE FALSE FALSE FALSE FALSE FALSE FALSE FALSE FALSE FALSE FALSE FALSE FALSE FALSE FALSE FALSE FALSE FALSE FALSE FALSE FALSE FALSE FALSE FALSE FALSE FALSE
c ind 1 2 3 4 5 6 7 8 9 10 0
c ind 11 12 13 14 15 16 17 18 19 20 0
c ind 21 22 23 24 25 26 27 28 29 30 0
c ind 31 32 0
cr 1 2 3 4 5 6 7 8 9 10 11 12 13 14 15 16 17 18 19 20 21 22 23 24 25 26 27 28 29 30 31 32
